COLUMNS

passenger_count
pickup_ID
dropoff_ID
ready_time_sec
pickup_district
dropoff_district
LDuals
IDuals
vehicle_ID
pick_position
drop_position

REQUESTS_INFO
1      802       718       48253     291       189       145       145       29        1         3         
1      668       847       48252     280       291       149       149       31        1         2         
2      814       994       48239     290       84        165.5     165.5     41        1         3         
3      397       287       48247     168       299       138       138       48        1         2         
2      652       863       48240     189       290       157       157       73        1         4         
1      633       719       48175     189       189       235       235       99        1         2         
3      603       897       48246     189       291       184       184       112       1         2         
2      788       836       48102     290       290       308       308       132       1         2         
1      377       180       48251     168       178       151       151       135       1         2         
1      723       992       48155     290       290       242       242       147       1         4         
2      534       802       48181     199       291       241       241       149       1         4         
3      466       860       48269     199       290       162       162       153       1         3         
1      556       642       48260     199       131       171       171       155       1         3         
1      815       131       48251     290       178       155.5     155.5     188       1         4         
2      817       909       48178     290       290       232.5     232.5     188       2         3         
1      464       620       48243     168       131       178       178       192       1         3         
1      256       291       48264     87        87        92        92        195       1         2         
3      981       827       48145     291       291       261       261       196       1         2         
1      608       885       48246     189       290       189       189       198       1         2         
2      793       249       48221     290       266       208.5     208.5     209       1         2         
4      484       22        48214     189       98        220       220       225       1         2         
1      418       439       48245     168       189       154       154       230       1         2         
1      810       606       48254     290       189       147       147       234       1         3         
1      906       1053      48253     290       84        174       174       272       1         3         
3      720       554       48228     290       189       198       198       277       1         3         
3      524       268       48231     52        299       210       210       295       1         2         
2      748       745       48188     290       290       210.5     210.5     306       1         2         
3      325       217       48230     299       87        154       154       307       1         2         
1      759       433       48224     131       52        174       174       313       1         3         
3      927       627       48268     290       189       161       161       320       1         2         
3      850       837       48268     291       290       161       161       391       1         2         
1      723       645       48249     290       280       181       181       402       1         4         
3      413       694       48221     52        189       154       154       425       1         2         
1      371       247       48262     52        266       88        88        429       1         3         
1      328       275       48245     299       87        158       158       450       1         2         
1      894       664       48244     291       131       153       153       475       1         3         
2      937       643       48219     291       131       207       207       475       2         4         
3      556       596       48261     199       131       170       170       478       1         3         
3      552       652       48246     189       189       233       233       493       1         3         
2      627       551       48244     189       189       181       181       528       1         2         
1      748       582       48235     290       189       170       170       539       1         2         
1      328       578       48267     299       189       133       133       552       1         3         
1      757       715       48258     131       131       125       125       565       1         3         
3      652       863       48240     189       290       171       171       566       1         2         
3      970       744       48249     290       290       154       154       591       1         2         
3      512       348       48218     199       299       203       203       593       1         3         
1      442       369       48269     168       52        161       161       597       1         2         
3      552       652       48246     189       189       233       233       606       1         2         
1      905       837       48181     290       290       191       191       614       1         2         
1      881       767       48157     290       290       267       267       617       1         2         
1      906       1002      48267     290       291       143       143       620       1         3         
1      805       629       48253     291       189       141       141       628       1         3         
2      772       827       48145     290       291       193       193       650       1         3         
2      1002      695       48216     291       189       201       201       669       1         3         
2      883       717       48179     290       189       240       240       673       1         3         
1      885       747       48251     290       290       139       139       691       1         3         
1      675       622       48194     189       280       204       204       705       1         2         
2      531       386       48243     189       299       206       206       716       1         4         
1      443       720       48230     168       290       212       212       738       1         2         
2      649       621       48267     189       280       164       164       808       1         3         
3      466       860       48269     199       290       162       162       817       1         2         
4      980       813       48155     291       290       284       284       821       1         2         
1      630       230       48228     189       266       140       140       828       1         4         
3      937       643       48219     291       131       207       207       831       1         2         
1      834       616       47997     290       131       445       445       846       1         3         
3      627       906       48180     189       290       229       229       847       1         3         
2      442       510       48237     168       199       193       193       850       1         2         
1      582       601       48240     189       189       164       164       858       1         2         
1      818       1065      48241     290       291       188.5     188.5     866       1         3         
1      276       455       48266     87        52        98        98        889       1         3         
3      983       947       48235     291       290       186       186       890       1         3         
2      875       859       48227     291       290       209       209       909       1         2         
3      760       1281      48254     291       192       186       186       914       1         3         
1      654       694       48211     189       189       215       215       938       1         3         
1      917       892       48263     291       291       164       164       962       1         2         
3      627       551       48244     189       189       181       181       1004      1         2         
4      691       486       48033     131       199       375       375       1025      1         2         
1      1011      840       48257     84        290       133       133       1086      1         2         
2      573       1107      48268     189       291       130       130       1095      1         3         
1      722       827       48259     290       291       150       150       1105      1         3         
4      871       895       48101     291       291       305       305       1117      1         2         
3      709       645       48202     131       280       193       193       1124      1         2         
3      749       699       48263     290       290       133       133       1140      1         2         
1      461       606       48251     189       189       161       161       1151      1         2         
1      772       648       48181     290       189       208.5     208.5     1157      1         4         
1      577       176       48213     189       174       215       215       1159      1         4         
3      573       1107      48268     189       291       159       159       1190      1         2         
1      937       970       48227     291       290       150       150       1201      1         3         
2      533       598       48056     199       189       377       377       1205      1         3         
2      510       743       48267     199       290       154       154       1205      2         4         
1      908       1102      48186     290       84        267       267       1238      1         2         
3      788       836       48102     290       290       308       308       1254      1         2         
1      532       331       48198     199       127       210       210       1264      1         4         
1      532       554       48192     199       189       216       216       1264      2         3         
2      1043      906       48226     291       290       171       171       1265      1         3         
2      720       554       48228     290       189       198       198       1269      1         2         
3      507       850       48164     189       291       272       272       1270      1         3         
1      840       970       48250     290       290       165.5     165.5     1281      1         2         
1      862       671       48246     290       280       134       134       1287      1         4         
3      694       256       48230     189       87        187       187       1308      1         3         
3      603       897       48246     189       291       184       184       1310      1         2         
1      620       273       48243     131       206       192       192       1330      1         2         
1      236       305       48239     87        299       142       142       1345      1         3         
2      137       273       48258     286       206       124       124       1346      1         2         
2      927       627       48268     290       189       161       161       1347      1         2         
2      1067      1127      48268     291       291       140       140       1358      1         2         
3      557       674       48160     189       189       265       265       1369      1         2         
2      552       512       48226     189       199       253       253       1388      1         3         
1      644       895       48263     131       291       115       115       1398      1         2         
2      1199      1506      48270     84        296       0         0         0         0         0         
3      1199      1506      48270     84        296       0         0         0         0         0         
3      354       642       48270     119       131       0         0         0         0         0         
3      354       642       48270     119       131       0         0         0         0         0         
1      1098      972       48270     84        290       0         0         0         0         0         
1      503       555       48270     52        199       0         0         0         0         0         
3      413       270       48270     52        127       0         0         0         0         0         
1      674       766       48270     189       290       0         0         0         0         0         
1      669       804       48270     280       291       0         0         0         0         0         
2      842       656       48271     290       290       0         0         0         0         0         
3      526       1000      48271     52        291       0         0         0         0         0         
3      526       1000      48271     52        291       0         0         0         0         0         
3      842       656       48271     290       290       0         0         0         0         0         
1      1004      1090      48271     291       291       0         0         0         0         0         
1      629       536       48271     189       189       0         0         0         0         0         
1      371       305       48271     52        299       0         0         0         0         0         
1      837       970       48271     290       290       0         0         0         0         0         
1      377       677       48272     168       189       0         0         0         0         0         
1      894       996       48272     291       84        0         0         0         0         0         
1      577       546       48272     189       52        0         0         0         0         0         
2      603       858       48273     189       290       0         0         0         0         0         
2      599       678       48273     280       290       0         0         0         0         0         
2      622       290       48273     280       127       0         0         0         0         0         
1      532       234       48273     199       87        0         0         0         0         0         
1      767       904       48273     290       290       0         0         0         0         0         
1      875       719       48273     291       189       0         0         0         0         0         
1      436       714       48273     100       131       0         0         0         0         0         
2      838       1046      48274     290       291       0         0         0         0         0         
1      1022      937       48274     291       291       0         0         0         0         0         
1      669       550       48274     280       189       0         0         0         0         0         
1      527       721       48274     52        290       0         0         0         0         0         
2      779       695       48275     131       189       0         0         0         0         0         
1      550       559       48275     189       189       0         0         0         0         0         
1      913       812       48275     291       290       0         0         0         0         0         
4      354       419       48275     119       168       0         0         0         0         0         
1      1003      1108      48276     291       291       0         0         0         0         0         
2      968       505       48276     290       52        0         0         0         0         0         
1      782       892       48276     291       291       0         0         0         0         0         
1      1003      887       48276     291       290       0         0         0         0         0         
2      460       334       48276     189       119       0         0         0         0         0         
2      511       333       48276     199       119       0         0         0         0         0         
3      874       695       48276     291       189       0         0         0         0         0         
2      874       695       48276     291       189       0         0         0         0         0         
3      354       392       48277     119       52        0         0         0         0         0         
1      510       504       48277     199       52        0         0         0         0         0         
1      413       718       48277     52        189       0         0         0         0         0         
1      650       228       48277     189       266       0         0         0         0         0         
1      927       597       48277     290       131       0         0         0         0         0         
3      354       392       48277     119       52        0         0         0         0         0         
1      528       972       48278     52        290       0         0         0         0         0         
2      718       249       48278     189       266       0         0         0         0         0         
1      781       742       48278     291       290       0         0         0         0         0         
1      937       1066      48278     291       291       0         0         0         0         0         
1      1022      913       48278     291       291       0         0         0         0         0         
1      303       624       48279     299       189       0         0         0         0         0         
3      534       368       48279     199       299       0         0         0         0         0         
1      369       499       48279     52        52        0         0         0         0         0         
1      291       311       48279     87        87        0         0         0         0         0         
3      936       875       48279     291       291       0         0         0         0         0         
2      430       641       48279     52        131       0         0         0         0         0         
3      534       368       48279     199       299       0         0         0         0         0         
2      511       457       48280     199       52        0         0         0         0         0         
1      621       737       48280     280       189       0         0         0         0         0         
1      194       117       48280     207       286       0         0         0         0         0         
2      882       601       48280     290       189       0         0         0         0         0         
1      836       912       48280     290       291       0         0         0         0         0         
2      747       905       48280     290       290       0         0         0         0         0         
2      696       460       48280     189       189       0         0         0         0         0         
2      630       600       48281     189       280       0         0         0         0         0         
1      573       694       48281     189       189       0         0         0         0         0         
1      481       968       48281     189       290       0         0         0         0         0         
1      860       649       48281     290       189       0         0         0         0         0         
1      813       550       48281     290       189       0         0         0         0         0         
1      325       250       48281     299       127       0         0         0         0         0         
1      390       484       48281     52        189       0         0         0         0         0         
1      827       905       48282     291       290       0         0         0         0         0         
1      572       1045      48282     131       291       0         0         0         0         0         
1      650       834       48282     189       290       0         0         0         0         0         
2      372       277       48282     119       87        0         0         0         0         0         
2      649       408       48282     189       299       0         0         0         0         0         
1      792       695       48283     290       189       0         0         0         0         0         
1      332       327       48283     87        299       0         0         0         0         0         
1      651       551       48283     189       189       0         0         0         0         0         
1      654       889       48283     189       290       0         0         0         0         0         
1      923       1158      48283     290       84        0         0         0         0         0         
2      287       413       48283     299       52        0         0         0         0         0         
1      532       772       48284     199       290       0         0         0         0         0         
2      914       735       48284     291       131       0         0         0         0         0         
1      456       398       48284     52        168       0         0         0         0         0         
1      665       849       48284     131       291       0         0         0         0         0         
2      983       892       48284     291       291       0         0         0         0         0         
2      257       202       48284     87        87        0         0         0         0         0         
3      257       202       48284     87        87        0         0         0         0         0         
2      679       647       48284     290       280       0         0         0         0         0         
3      679       647       48284     290       280       0         0         0         0         0         
1      981       1023      48285     291       291       0         0         0         0         0         
2      697       676       48285     189       189       0         0         0         0         0         
3      697       676       48285     189       189       0         0         0         0         0         
2      616       812       48285     131       290       0         0         0         0         0         
4      1168      1022      48285     291       291       0         0         0         0         0         
3      616       812       48285     131       290       0         0         0         0         0         
1      790       748       48285     290       290       0         0         0         0         0         
1      937       647       48285     291       280       0         0         0         0         0         
1      293       412       48285     87        52        0         0         0         0         0         
1      348       436       48285     299       100       0         0         0         0         0         
1      505       1188      48285     52        192       0         0         0         0         0         
1      691       927       48285     131       290       0         0         0         0         0         
1      311       287       48285     87        299       0         0         0         0         0         
2      875       733       48286     291       131       0         0         0         0         0         
2      848       981       48287     291       291       0         0         0         0         0         
1      526       936       48287     52        291       0         0         0         0         0         
1      579       481       48287     189       189       0         0         0         0         0         
3      601       536       48287     189       189       0         0         0         0         0         
3      848       981       48287     291       291       0         0         0         0         0         
2      768       793       48288     290       290       0         0         0         0         0         
1      413       295       48288     52        87        0         0         0         0         0         
1      43        141       48288     9         54        0         0         0         0         0         
2      549       1692      48288     52        142       0         0         0         0         0         
3      549       1692      48288     52        142       0         0         0         0         0         
1      769       375       48288     290       119       0         0         0         0         0         
2      694       30        48289     189       9         0         0         0         0         0         
3      694       30        48289     189       9         0         0         0         0         0         
3      827       979       48289     291       291       0         0         0         0         0         
3      827       979       48289     291       291       0         0         0         0         0         
1      665       696       48289     131       189       0         0         0         0         0         
1      747       1094      48289     290       84        0         0         0         0         0         
1      46        137       48289     98        286       0         0         0         0         0         
1      627       409       48289     189       52        0         0         0         0         0         
1      984       699       48289     291       290       0         0         0         0         0         
4      311       504       48290     87        52        0         0         0         0         0         
1      529       465       48290     189       199       0         0         0         0         0         
1      760       735       48290     291       131       0         0         0         0         0         
2      983       904       48291     291       290       0         0         0         0         0         
1      485       390       48291     189       52        0         0         0         0         0         
1      837       906       48291     290       290       0         0         0         0         0         
1      925       600       48291     290       280       0         0         0         0         0         
1      482       598       48291     189       189       0         0         0         0         0         
1      619       158       48292     131       174       0         0         0         0         0         
2      505       328       48292     52        299       0         0         0         0         0         
1      817       369       48292     290       52        0         0         0         0         0         
1      47        619       48292     98        131       0         0         0         0         0         
2      1230      699       48292     129       290       0         0         0         0         0         
1      805       766       48292     291       290       0         0         0         0         0         
2      78        573       48293     9         189       0         0         0         0         0         
1      456       125       48293     52        54        0         0         0         0         0         
1      608       717       48293     189       189       0         0         0         0         0         
1      1002      408       48293     291       299       0         0         0         0         0         
3      673       372       48294     189       119       0         0         0         0         0         
1      780       759       48294     291       131       0         0         0         0         0         
3      673       372       48294     189       119       0         0         0         0         0         
1      858       724       48294     290       290       0         0         0         0         0         
2      528       418       48295     52        168       0         0         0         0         0         
1      386       291       48296     299       87        0         0         0         0         0         
1      980       938       48296     291       291       0         0         0         0         0         
2      557       351       48296     189       52        0         0         0         0         0         
1      123       144       48296     54        54        0         0         0         0         0         
1      327       688       48296     299       131       0         0         0         0         0         
1      628       80        48296     189       98        0         0         0         0         0         
1      292       307       48296     87        127       0         0         0         0         0         
1      1128      789       48296     291       290       0         0         0         0         0         
1      851       694       48296     291       189       0         0         0         0         0         
1      189       312       48297     286       87        0         0         0         0         0         
1      881       847       48297     290       291       0         0         0         0         0         
1      605       557       48297     189       189       0         0         0         0         0         
1      350       172       48297     127       286       0         0         0         0         0         
1      511       723       48298     199       290       0         0         0         0         0         
1      981       532       48298     291       199       0         0         0         0         0         
3      452       570       48298     52        52        0         0         0         0         0         
3      452       570       48298     52        52        0         0         0         0         0         
1      712       489       48299     131       199       0         0         0         0         0         
1      733       408       48299     131       299       0         0         0         0         0         
4      827       915       48299     291       291       0         0         0         0         0         
3      961       757       48299     291       131       0         0         0         0         0         
3      961       757       48299     291       131       0         0         0         0         0         
